(set-option :produce-models true)
(set-logic QF_UF)
(declare-fun p20() Bool)
(declare-fun p32() Bool)
(declare-fun p21() Bool)
(declare-fun p38() Bool)
(declare-fun p15() Bool)
(declare-fun p1() Bool)
(declare-fun p22() Bool)
(declare-fun p17() Bool)
(declare-fun p34() Bool)
(declare-fun p7() Bool)
(declare-fun p27() Bool)
(declare-fun p0() Bool)
(declare-fun p26() Bool)
(declare-fun p3() Bool)
(declare-fun p16() Bool)
(declare-fun p25() Bool)
(declare-fun p35() Bool)
(declare-fun p24() Bool)
(declare-fun p31() Bool)
(declare-fun p33() Bool)
(declare-fun p13() Bool)
(declare-fun p6() Bool)
(declare-fun p9() Bool)
(declare-fun p37() Bool)
(declare-fun p11() Bool)
(declare-fun p5() Bool)
(declare-fun p8() Bool)
(declare-fun p14() Bool)
(declare-fun p12() Bool)
(declare-fun p36() Bool)
(declare-fun p18() Bool)
(declare-fun p4() Bool)
(declare-fun p29() Bool)
(declare-fun p30() Bool)
(declare-fun p2() Bool)
(declare-fun p23() Bool)
(declare-fun p19() Bool)
(declare-fun p28() Bool)
(declare-fun p39() Bool)
(declare-fun p10() Bool)
(assert
(and (or p20 (not p20) p32) (or p21 (not p38) (not p15)) (or p1 p22 p1) (or (not p15) p17 p34) (or p7 p27 p0) (or p26 (not p3) p17) (or (not p16) p25 p26) (or p35 p24 (not p31)) (or p31 p33 p1) (or (not p13) (not p32) p6) (or p9 (not p37) p13) (or p11 (not p5) p21) (or (not p6) (not p8) (not p7)) (or p14 p12 (not p34)) (or p24 p20 p27) (or p36 p8 p22) (or p20 p18 p24) (or (not p4) p14 (not p29)) (or (not p30) (not p24) p18) (or (not p8) p30 (not p29)) (or p2 (not p20) p22) (or p24 p5 p13) (or p5 (not p13) (not p13)) (or p1 p17 (not p38)) (or (not p14) (not p23) p30) (or (not p25) (not p38) (not p25)) (or (not p17) p24 p11) (or p9 p22 (not p38)) (or p12 (not p37) p16) (or (not p13) p23 (not p23)) (or p37 p31 p17) (or p22 p37 (not p18)) (or (not p13) p35 (not p26)) (or (not p25) p17 p31) (or p38 p30 p30) (or (not p19) p23 (not p20)) (or p38 p0 (not p19)) (or (not p8) p2 (not p24)) (or (not p23) p28 p34) (or p34 p24 (not p24)) (or (not p39) (not p17) p17) (or (not p38) p16 (not p39)) (or (not p1) (not p16) (not p26)) (or p31 (not p5) (not p29)) (or p23 p7 (not p31)) (or (not p8) p11 (not p0)) (or p37 (not p10) p35) (or p22 p1 p7) (or p9 (not p22) p39) (or p19 p26 (not p12)) (or (not p0) (not p34) (not p33)) (or (not p36) (not p17) p18) (or (not p5) p20 (not p31)) (or p2 p5 p18) (or p27 (not p31) (not p36)) (or (not p19) p31 (not p9)) (or p21 (not p3) p19) (or (not p13) p3 (not p9)) (or p29 p38 p24) (or p32 p3 (not p13)) (or (not p1) (not p35) (not p39)) (or p36 p2 (not p35)) (or p6 p15 p38) (or (not p23) (not p28) (not p17)) (or (not p17) p33 (not p0)) (or p19 p5 p21) (or p9 p21 p35) (or (not p38) p13 (not p2)) (or (not p7) (not p5) p22) (or (not p14) (not p2) p18) (or (not p22) (not p10) p11) (or p24 (not p28) (not p20)) (or p7 (not p3) p15) (or (not p21) p1 (not p14)) (or (not p26) (not p19) p26) (or (not p0) p5 p32) (or (not p20) p8 (not p2)) (or p26 p1 (not p15)) (or p29 (not p39) (not p8)) (or (not p29) p36 (not p34)) (or (not p16) p16 p30) (or p39 (not p29) p0) (or (not p31) (not p0) p15) (or (not p21) p2 (not p16)) (or p23 p25 (not p23)) (or p20 p12 (not p39)) (or p38 (not p12) (not p4)) (or (not p26) p14 p29) (or p17 (not p14) (not p5)) (or p29 p38 p38) (or p31 (not p19) (not p30)) (or p10 p36 (not p27)) (or (not p26) p35 p33) (or (not p17) p35 (not p5)) (or p23 (not p4) p14) (or (not p20) p3 (not p23)) (or p39 (not p25) p36) (or (not p6) p14 (not p13)) (or (not p31) p5 (not p28)) (or p28 p39 (not p23)) (or p6 p22 p37) (or p19 p39 (not p25)) (or p17 (not p8) (not p3)) (or p39 p22 (not p39)) (or p2 (not p11) (not p7)) (or p21 p30 p15) (or (not p9) (not p21) (not p26)) (or p35 (not p39) p17) (or p3 (not p25) p29) (or (not p25) (not p20) p36) (or p3 (not p31) p14) (or (not p6) p31 p11) (or (not p22) p26 (not p2)) (or p26 (not p11) (not p20)) (or p6 p7 (not p16)) (or p7 (not p20) (not p27)) (or (not p14) (not p25) p9) (or (not p26) (not p38) (not p16)) (or (not p19) p22 p15) (or (not p18) p11 p14) (or p22 (not p5) (not p30)) (or p35 (not p4) (not p9)) (or (not p29) (not p11) (not p18)) (or (not p37) (not p7) (not p22)) (or p9 p16 p39) (or p1 (not p38) p27) (or (not p22) (not p26) p6) (or (not p31) p31 p26) (or p16 p32 (not p35)) (or (not p0) (not p8) p36) (or (not p26) p29 p7) (or p1 p25 (not p15)) (or (not p15) p23 p21) (or (not p0) (not p13) (not p19)) (or p27 (not p9) (not p37)) (or (not p5) (not p29) (not p12)) (or p21 (not p36) (not p29)) (or p25 (not p27) p37) (or p25 (not p23) p5) (or p27 p17 (not p13)) (or p22 p5 p11) (or p33 p6 p9) (or (not p36) p30 (not p26)) (or p28 p3 (not p22)) (or (not p6) (not p24) (not p32)) (or p17 (not p9) (not p21)) (or p25 (not p25) p39) (or p38 (not p29) p15) (or (not p20) (not p22) (not p2)) (or p15 p31 p33) (or p6 (not p3) (not p11)) (or p13 (not p18) p23) (or (not p9) p36 (not p35)) (or p21 (not p8) p1) (or (not p34) p11 (not p24)) (or (not p3) p30 p1) (or p3 p6 (not p15)) (or p24 (not p39) p7) (or (not p29) (not p13) (not p8)) (or (not p30) p3 (not p20)) (or (not p26) (not p1) p1) (or p12 (not p0) p14) (or p0 (not p14) (not p30)) (or (not p16) p7 p15) (or (not p38) p4 p25) (or p28 p31 p18) (or (not p33) p11 p5) (or (not p29) p3 (not p9)) (or p27 p3 p12) (or p31 p13 p12) (or p30 (not p8) p8))
)
(check-sat)
(get-model)
